; ./aeval/./multi-phase/s_split_54_000.smt2
(set-logic HORN)

(declare-fun |inv| ( Int Int Int ) Bool)
(declare-fun |fail| ( ) Bool)

(assert
  (forall ( (A Int) (B Int) (C Int) ) 
    (=>
      (and
        (and (= B 8000) (= C 0) (= A 0))
      )
      (inv A B C)
    )
  )
)
(assert
  (forall ( (A Int) (B Int) (C Int) (D Int) (E Int) (F Int) ) 
    (=>
      (and
        (inv B A C)
        (and (= E (ite (>= B 8000) (+ 1 A) (+ (- 1) A)))
     (= F (ite (<= 8000 B) (+ (- 1) C) (+ 1 C)))
     (= D (+ 1 B)))
      )
      (inv D E F)
    )
  )
)
(assert
  (forall ( (A Int) (B Int) (C Int) ) 
    (=>
      (and
        (inv A B C)
        (and (or (not (= C 0)) (not (= B 8000))) (= A 16000))
      )
      fail
    )
  )
)
(assert
  (forall ( (CHC_COMP_UNUSED Bool) ) 
    (=>
      (and
        fail
        true
      )
      false
    )
  )
)

(check-sat)
(exit)
